Please solve the following SAT Problem encoded in DIMACS format, provide line of thoughts, write your final answer as a single solution at the end of response with header 'answer: ' : 
p cnf 10 65
1 -10 -5 0
-5 8 -1 0
-5 -9 -7 0
-9 -6 -8 0
3 -2 -9 0
-2 -1 -4 0
4 -6 8 0
-6 -9 -10 0
-10 8 -6 0
-9 -6 -1 0
-9 -10 7 0
6 -9 -7 0
4 -3 -5 0
-5 -7 -1 0
-10 -3 -9 0
10 -1 -7 0
-5 -1 4 0
-10 -6 4 0
8 -3 6 0
6 -10 5 0
-9 8 -2 0
-5 -6 4 0
-6 -1 8 0
6 -10 9 0
-6 -7 4 0
-9 4 -3 0
-5 -9 4 0
-6 -3 8 0
-3 -9 -1 0
-7 -3 -6 0
-5 -3 -9 0
4 -7 -2 0
-1 4 -2 0
-5 -2 8 0
-5 -9 -7 0
-10 -3 8 0
-3 -6 8 0
-9 -3 -7 0
-1 4 -7 0
-1 -5 -2 0
-5 -6 -7 0
-9 -10 8 0
-9 -5 -3 0
-7 1 -10 0
2 -5 -10 0
-10 6 5 0
-1 5 -6 0
8 -1 -7 0
6 8 4 0
4 8 -5 0
-3 -7 -9 0
-7 -6 -9 0
9 4 -5 0
8 -2 -6 0
8 7 -2 0
-8 -7 -2 0
4 -6 -10 0
-1 -5 4 0
7 -4 8 0
-9 -5 -3 0
-2 -3 8 0
-10 -9 -1 0
3 -5 8 0
-7 8 -1 0
7 -2 4 0

